;; Original file: id2_i5_o5_false-unreach-call_true-termination.c.smt2
(set-logic HORN)
(set-info :source "CHC Constraint Logic: QF_LIA
                   Contains non-linear Horn clauses: true")
(declare-fun id_L9-1 (Int Int Int Int Bool) Bool)
(declare-fun id_L8 (Int Int Int Int Bool) Bool)
(declare-fun id_L9 (Int Int Int Int Bool) Bool)
(declare-fun ULTIMATE.start_ULTIMATE.startENTRY (Int Int Int Int Int Bool) Bool)
(declare-fun id2_L14-1 (Int Int Int Int Bool) Bool)
(declare-fun id_idFINAL (Int Int Int Int Bool) Bool)
(declare-fun id2_id2FINAL (Int Int Int Int Bool) Bool)
(declare-fun ULTIMATE.start_L21 (Int Int Int Int Int Bool) Bool)
(declare-fun ULTIMATE.start_L20 (Int Int Int Int Int Bool) Bool)
(declare-fun ULTIMATE.start_ULTIMATE.startFINAL (Int Int Int Int Int Bool) Bool)
(declare-fun id2_id2EXIT (Int Int Int Int Bool) Bool)
(declare-fun id_idEXIT (Int Int Int Int Bool) Bool)
(declare-fun id2_L14 (Int Int Int Int Bool) Bool)
(declare-fun ULTIMATE.start_L17 (Int Int Int Int Int Bool) Bool)
(declare-fun id2_L13 (Int Int Int Int Bool) Bool)
(declare-fun ULTIMATE.start_L19-1 (Int Int Int Int Int Bool) Bool)
(declare-fun ULTIMATE.start_L19 (Int Int Int Int Int Bool) Bool)
(declare-fun id_idENTRY (Int Int Int Int Bool) Bool)
(declare-fun ULTIMATE.start_ULTIMATE.startEXIT (Int Int Int Int Int Bool) Bool)
(declare-fun id2_id2ENTRY (Int Int Int Int Bool) Bool)
(assert (forall ((hhv_ULTIMATE.start_L19_0_Int Int) (hhv_ULTIMATE.start_L19_1_Int Int) (hhv_ULTIMATE.start_L19_2_Int Int) (hhv_ULTIMATE.start_L19_3_Int Int) (hhv_ULTIMATE.start_L19_4_Int Int) (hhv_ULTIMATE.start_L19_5_Bool Bool) (hbv_ULTIMATE.start_ULTIMATE.startENTRY_0_Int Int) (hbv_ULTIMATE.start_ULTIMATE.startENTRY_1_Int Int) (hbv_ULTIMATE.start_ULTIMATE.startENTRY_2_Int Int) (hbv_ULTIMATE.start_ULTIMATE.startENTRY_3_Int Int) (hbv_ULTIMATE.start_ULTIMATE.startENTRY_4_Int Int) (hbv_ULTIMATE.start_ULTIMATE.startENTRY_5_Bool Bool)) (=> (and (or (= hhv_ULTIMATE.start_L19_3_Int 5) hhv_ULTIMATE.start_L19_5_Bool) (ULTIMATE.start_ULTIMATE.startENTRY hhv_ULTIMATE.start_L19_0_Int hbv_ULTIMATE.start_ULTIMATE.startENTRY_1_Int hbv_ULTIMATE.start_ULTIMATE.startENTRY_2_Int hbv_ULTIMATE.start_ULTIMATE.startENTRY_3_Int hbv_ULTIMATE.start_ULTIMATE.startENTRY_4_Int hhv_ULTIMATE.start_L19_5_Bool)) (ULTIMATE.start_L19 hhv_ULTIMATE.start_L19_0_Int hhv_ULTIMATE.start_L19_1_Int hhv_ULTIMATE.start_L19_2_Int hhv_ULTIMATE.start_L19_3_Int hhv_ULTIMATE.start_L19_4_Int hhv_ULTIMATE.start_L19_5_Bool))))
(assert (forall ((hhv_ULTIMATE.start_L20_0_Int Int) (hhv_ULTIMATE.start_L20_1_Int Int) (hhv_ULTIMATE.start_L20_2_Int Int) (hhv_ULTIMATE.start_L20_3_Int Int) (hhv_ULTIMATE.start_L20_4_Int Int) (hhv_ULTIMATE.start_L20_5_Bool Bool) (hbv_ULTIMATE.start_L19-1_0_Int Int) (hbv_ULTIMATE.start_L19-1_1_Int Int) (hbv_ULTIMATE.start_L19-1_2_Int Int) (hbv_ULTIMATE.start_L19-1_3_Int Int) (hbv_ULTIMATE.start_L19-1_4_Int Int) (hbv_ULTIMATE.start_L19-1_5_Bool Bool)) (=> (and (or (and (<= hbv_ULTIMATE.start_L19-1_1_Int 2147483647) (= hhv_ULTIMATE.start_L20_4_Int hbv_ULTIMATE.start_L19-1_1_Int) (<= 0 (+ hbv_ULTIMATE.start_L19-1_1_Int 2147483648))) hhv_ULTIMATE.start_L20_5_Bool) (ULTIMATE.start_L19-1 hhv_ULTIMATE.start_L20_0_Int hbv_ULTIMATE.start_L19-1_1_Int hhv_ULTIMATE.start_L20_2_Int hhv_ULTIMATE.start_L20_3_Int hbv_ULTIMATE.start_L19-1_4_Int hhv_ULTIMATE.start_L20_5_Bool)) (ULTIMATE.start_L20 hhv_ULTIMATE.start_L20_0_Int hhv_ULTIMATE.start_L20_1_Int hhv_ULTIMATE.start_L20_2_Int hhv_ULTIMATE.start_L20_3_Int hhv_ULTIMATE.start_L20_4_Int hhv_ULTIMATE.start_L20_5_Bool))))
(assert (forall ((hhv_id_L8_0_Int Int) (hhv_id_L8_1_Int Int) (hhv_id_L8_2_Int Int) (hhv_id_L8_3_Int Int) (hhv_id_L8_4_Bool Bool) (hbv_id_idENTRY_0_Int Int) (hbv_id_idENTRY_1_Int Int) (hbv_id_idENTRY_2_Int Int) (hbv_id_idENTRY_3_Int Int) (hbv_id_idENTRY_4_Bool Bool)) (=> (and (id_idENTRY hhv_id_L8_0_Int hhv_id_L8_1_Int hbv_id_idENTRY_2_Int hhv_id_L8_3_Int hhv_id_L8_4_Bool) (or (= hhv_id_L8_2_Int hhv_id_L8_3_Int) hhv_id_L8_4_Bool)) (id_L8 hhv_id_L8_0_Int hhv_id_L8_1_Int hhv_id_L8_2_Int hhv_id_L8_3_Int hhv_id_L8_4_Bool))))
(assert (forall ((hhv_ULTIMATE.start_L21_0_Int Int) (hhv_ULTIMATE.start_L21_1_Int Int) (hhv_ULTIMATE.start_L21_2_Int Int) (hhv_ULTIMATE.start_L21_3_Int Int) (hhv_ULTIMATE.start_L21_4_Int Int) (hhv_ULTIMATE.start_L21_5_Bool Bool) (hbv_ULTIMATE.start_L20_0_Int Int) (hbv_ULTIMATE.start_L20_1_Int Int) (hbv_ULTIMATE.start_L20_2_Int Int) (hbv_ULTIMATE.start_L20_3_Int Int) (hbv_ULTIMATE.start_L20_4_Int Int) (hbv_ULTIMATE.start_L20_5_Bool Bool)) (=> (and (or hhv_ULTIMATE.start_L21_5_Bool (= hhv_ULTIMATE.start_L21_4_Int 5)) (ULTIMATE.start_L20 hhv_ULTIMATE.start_L21_0_Int hhv_ULTIMATE.start_L21_1_Int hhv_ULTIMATE.start_L21_2_Int hhv_ULTIMATE.start_L21_3_Int hhv_ULTIMATE.start_L21_4_Int hhv_ULTIMATE.start_L21_5_Bool)) (ULTIMATE.start_L21 hhv_ULTIMATE.start_L21_0_Int hhv_ULTIMATE.start_L21_1_Int hhv_ULTIMATE.start_L21_2_Int hhv_ULTIMATE.start_L21_3_Int hhv_ULTIMATE.start_L21_4_Int hhv_ULTIMATE.start_L21_5_Bool))))
(assert (forall ((hhv_ULTIMATE.start_L17_0_Int Int) (hhv_ULTIMATE.start_L17_1_Int Int) (hhv_ULTIMATE.start_L17_2_Int Int) (hhv_ULTIMATE.start_L17_3_Int Int) (hhv_ULTIMATE.start_L17_4_Int Int) (hhv_ULTIMATE.start_L17_5_Bool Bool) (hbv_ULTIMATE.start_L20_0_Int Int) (hbv_ULTIMATE.start_L20_1_Int Int) (hbv_ULTIMATE.start_L20_2_Int Int) (hbv_ULTIMATE.start_L20_3_Int Int) (hbv_ULTIMATE.start_L20_4_Int Int) (hbv_ULTIMATE.start_L20_5_Bool Bool)) (=> (and (or hhv_ULTIMATE.start_L17_5_Bool (not (= hhv_ULTIMATE.start_L17_4_Int 5))) (ULTIMATE.start_L20 hhv_ULTIMATE.start_L17_0_Int hhv_ULTIMATE.start_L17_1_Int hhv_ULTIMATE.start_L17_2_Int hhv_ULTIMATE.start_L17_3_Int hhv_ULTIMATE.start_L17_4_Int hhv_ULTIMATE.start_L17_5_Bool)) (ULTIMATE.start_L17 hhv_ULTIMATE.start_L17_0_Int hhv_ULTIMATE.start_L17_1_Int hhv_ULTIMATE.start_L17_2_Int hhv_ULTIMATE.start_L17_3_Int hhv_ULTIMATE.start_L17_4_Int hhv_ULTIMATE.start_L17_5_Bool))))
(assert (forall ((hhv_id_idFINAL_0_Int Int) (hhv_id_idFINAL_1_Int Int) (hhv_id_idFINAL_2_Int Int) (hhv_id_idFINAL_3_Int Int) (hhv_id_idFINAL_4_Bool Bool) (hbv_id_L8_0_Int Int) (hbv_id_L8_1_Int Int) (hbv_id_L8_2_Int Int) (hbv_id_L8_3_Int Int) (hbv_id_L8_4_Bool Bool)) (=> (and (id_L8 hbv_id_L8_0_Int hhv_id_idFINAL_1_Int hhv_id_idFINAL_2_Int hhv_id_idFINAL_3_Int hhv_id_idFINAL_4_Bool) (or hhv_id_idFINAL_4_Bool (and (= hhv_id_idFINAL_0_Int 0) (= 0 hhv_id_idFINAL_2_Int)))) (id_idFINAL hhv_id_idFINAL_0_Int hhv_id_idFINAL_1_Int hhv_id_idFINAL_2_Int hhv_id_idFINAL_3_Int hhv_id_idFINAL_4_Bool))))
(assert (forall ((hhv_id_L9_0_Int Int) (hhv_id_L9_1_Int Int) (hhv_id_L9_2_Int Int) (hhv_id_L9_3_Int Int) (hhv_id_L9_4_Bool Bool) (hbv_id_L8_0_Int Int) (hbv_id_L8_1_Int Int) (hbv_id_L8_2_Int Int) (hbv_id_L8_3_Int Int) (hbv_id_L8_4_Bool Bool)) (=> (and (or (not (= 0 hhv_id_L9_2_Int)) hhv_id_L9_4_Bool) (id_L8 hhv_id_L9_0_Int hhv_id_L9_1_Int hhv_id_L9_2_Int hhv_id_L9_3_Int hhv_id_L9_4_Bool)) (id_L9 hhv_id_L9_0_Int hhv_id_L9_1_Int hhv_id_L9_2_Int hhv_id_L9_3_Int hhv_id_L9_4_Bool))))
(assert (forall ((hhv_ULTIMATE.start_ULTIMATE.startEXIT_0_Int Int) (hhv_ULTIMATE.start_ULTIMATE.startEXIT_1_Int Int) (hhv_ULTIMATE.start_ULTIMATE.startEXIT_2_Int Int) (hhv_ULTIMATE.start_ULTIMATE.startEXIT_3_Int Int) (hhv_ULTIMATE.start_ULTIMATE.startEXIT_4_Int Int) (hhv_ULTIMATE.start_ULTIMATE.startEXIT_5_Bool Bool) (hbv_ULTIMATE.start_L21_0_Int Int) (hbv_ULTIMATE.start_L21_1_Int Int) (hbv_ULTIMATE.start_L21_2_Int Int) (hbv_ULTIMATE.start_L21_3_Int Int) (hbv_ULTIMATE.start_L21_4_Int Int) (hbv_ULTIMATE.start_L21_5_Bool Bool)) (=> (and (ULTIMATE.start_L21 hhv_ULTIMATE.start_ULTIMATE.startEXIT_0_Int hhv_ULTIMATE.start_ULTIMATE.startEXIT_1_Int hhv_ULTIMATE.start_ULTIMATE.startEXIT_2_Int hhv_ULTIMATE.start_ULTIMATE.startEXIT_3_Int hhv_ULTIMATE.start_ULTIMATE.startEXIT_4_Int hbv_ULTIMATE.start_L21_5_Bool) hhv_ULTIMATE.start_ULTIMATE.startEXIT_5_Bool) (ULTIMATE.start_ULTIMATE.startEXIT hhv_ULTIMATE.start_ULTIMATE.startEXIT_0_Int hhv_ULTIMATE.start_ULTIMATE.startEXIT_1_Int hhv_ULTIMATE.start_ULTIMATE.startEXIT_2_Int hhv_ULTIMATE.start_ULTIMATE.startEXIT_3_Int hhv_ULTIMATE.start_ULTIMATE.startEXIT_4_Int hhv_ULTIMATE.start_ULTIMATE.startEXIT_5_Bool))))
(assert (forall ((hhv_ULTIMATE.start_L17_0_Int Int) (hhv_ULTIMATE.start_L17_1_Int Int) (hhv_ULTIMATE.start_L17_2_Int Int) (hhv_ULTIMATE.start_L17_3_Int Int) (hhv_ULTIMATE.start_L17_4_Int Int) (hhv_ULTIMATE.start_L17_5_Bool Bool) (hbv_ULTIMATE.start_L21_0_Int Int) (hbv_ULTIMATE.start_L21_1_Int Int) (hbv_ULTIMATE.start_L21_2_Int Int) (hbv_ULTIMATE.start_L21_3_Int Int) (hbv_ULTIMATE.start_L21_4_Int Int) (hbv_ULTIMATE.start_L21_5_Bool Bool)) (=> (and (ULTIMATE.start_L21 hhv_ULTIMATE.start_L17_0_Int hhv_ULTIMATE.start_L17_1_Int hhv_ULTIMATE.start_L17_2_Int hhv_ULTIMATE.start_L17_3_Int hhv_ULTIMATE.start_L17_4_Int hhv_ULTIMATE.start_L17_5_Bool) hhv_ULTIMATE.start_L17_5_Bool) (ULTIMATE.start_L17 hhv_ULTIMATE.start_L17_0_Int hhv_ULTIMATE.start_L17_1_Int hhv_ULTIMATE.start_L17_2_Int hhv_ULTIMATE.start_L17_3_Int hhv_ULTIMATE.start_L17_4_Int hhv_ULTIMATE.start_L17_5_Bool))))
(assert (forall ((hhv_ULTIMATE.start_ULTIMATE.startFINAL_0_Int Int) (hhv_ULTIMATE.start_ULTIMATE.startFINAL_1_Int Int) (hhv_ULTIMATE.start_ULTIMATE.startFINAL_2_Int Int) (hhv_ULTIMATE.start_ULTIMATE.startFINAL_3_Int Int) (hhv_ULTIMATE.start_ULTIMATE.startFINAL_4_Int Int) (hhv_ULTIMATE.start_ULTIMATE.startFINAL_5_Bool Bool) (hbv_ULTIMATE.start_L17_0_Int Int) (hbv_ULTIMATE.start_L17_1_Int Int) (hbv_ULTIMATE.start_L17_2_Int Int) (hbv_ULTIMATE.start_L17_3_Int Int) (hbv_ULTIMATE.start_L17_4_Int Int) (hbv_ULTIMATE.start_L17_5_Bool Bool)) (=> (and (or hhv_ULTIMATE.start_ULTIMATE.startFINAL_5_Bool (= hhv_ULTIMATE.start_ULTIMATE.startFINAL_0_Int hhv_ULTIMATE.start_ULTIMATE.startFINAL_2_Int)) (ULTIMATE.start_L17 hbv_ULTIMATE.start_L17_0_Int hhv_ULTIMATE.start_ULTIMATE.startFINAL_1_Int hhv_ULTIMATE.start_ULTIMATE.startFINAL_2_Int hhv_ULTIMATE.start_ULTIMATE.startFINAL_3_Int hhv_ULTIMATE.start_ULTIMATE.startFINAL_4_Int hhv_ULTIMATE.start_ULTIMATE.startFINAL_5_Bool)) (ULTIMATE.start_ULTIMATE.startFINAL hhv_ULTIMATE.start_ULTIMATE.startFINAL_0_Int hhv_ULTIMATE.start_ULTIMATE.startFINAL_1_Int hhv_ULTIMATE.start_ULTIMATE.startFINAL_2_Int hhv_ULTIMATE.start_ULTIMATE.startFINAL_3_Int hhv_ULTIMATE.start_ULTIMATE.startFINAL_4_Int hhv_ULTIMATE.start_ULTIMATE.startFINAL_5_Bool))))
(assert (forall ((hhv_id_idEXIT_0_Int Int) (hhv_id_idEXIT_1_Int Int) (hhv_id_idEXIT_2_Int Int) (hhv_id_idEXIT_3_Int Int) (hhv_id_idEXIT_4_Bool Bool) (hbv_id_idFINAL_0_Int Int) (hbv_id_idFINAL_1_Int Int) (hbv_id_idFINAL_2_Int Int) (hbv_id_idFINAL_3_Int Int) (hbv_id_idFINAL_4_Bool Bool)) (=> (id_idFINAL hhv_id_idEXIT_0_Int hhv_id_idEXIT_1_Int hhv_id_idEXIT_2_Int hhv_id_idEXIT_3_Int hhv_id_idEXIT_4_Bool) (id_idEXIT hhv_id_idEXIT_0_Int hhv_id_idEXIT_1_Int hhv_id_idEXIT_2_Int hhv_id_idEXIT_3_Int hhv_id_idEXIT_4_Bool))))
(assert (forall ((hhv_ULTIMATE.start_ULTIMATE.startEXIT_0_Int Int) (hhv_ULTIMATE.start_ULTIMATE.startEXIT_1_Int Int) (hhv_ULTIMATE.start_ULTIMATE.startEXIT_2_Int Int) (hhv_ULTIMATE.start_ULTIMATE.startEXIT_3_Int Int) (hhv_ULTIMATE.start_ULTIMATE.startEXIT_4_Int Int) (hhv_ULTIMATE.start_ULTIMATE.startEXIT_5_Bool Bool) (hbv_ULTIMATE.start_ULTIMATE.startFINAL_0_Int Int) (hbv_ULTIMATE.start_ULTIMATE.startFINAL_1_Int Int) (hbv_ULTIMATE.start_ULTIMATE.startFINAL_2_Int Int) (hbv_ULTIMATE.start_ULTIMATE.startFINAL_3_Int Int) (hbv_ULTIMATE.start_ULTIMATE.startFINAL_4_Int Int) (hbv_ULTIMATE.start_ULTIMATE.startFINAL_5_Bool Bool)) (=> (ULTIMATE.start_ULTIMATE.startFINAL hhv_ULTIMATE.start_ULTIMATE.startEXIT_0_Int hhv_ULTIMATE.start_ULTIMATE.startEXIT_1_Int hhv_ULTIMATE.start_ULTIMATE.startEXIT_2_Int hhv_ULTIMATE.start_ULTIMATE.startEXIT_3_Int hhv_ULTIMATE.start_ULTIMATE.startEXIT_4_Int hhv_ULTIMATE.start_ULTIMATE.startEXIT_5_Bool) (ULTIMATE.start_ULTIMATE.startEXIT hhv_ULTIMATE.start_ULTIMATE.startEXIT_0_Int hhv_ULTIMATE.start_ULTIMATE.startEXIT_1_Int hhv_ULTIMATE.start_ULTIMATE.startEXIT_2_Int hhv_ULTIMATE.start_ULTIMATE.startEXIT_3_Int hhv_ULTIMATE.start_ULTIMATE.startEXIT_4_Int hhv_ULTIMATE.start_ULTIMATE.startEXIT_5_Bool))))
(assert (forall ((hhv_id2_L14-1_0_Int Int) (hhv_id2_L14-1_1_Int Int) (hhv_id2_L14-1_2_Int Int) (hhv_id2_L14-1_3_Int Int) (hhv_id2_L14-1_4_Bool Bool) (hbv_id2_L14_0_Int Int) (hbv_id2_L14_1_Int Int) (hbv_id2_L14_2_Int Int) (hbv_id2_L14_3_Int Int) (hbv_id2_L14_4_Bool Bool) (hbv_id_idEXIT_0_Int Int) (hbv_id_idEXIT_1_Int Int) (hbv_id_idEXIT_2_Int Int) (hbv_id_idEXIT_3_Int Int) (hbv_id_idEXIT_4_Bool Bool)) (=> (and (id2_L14 hhv_id2_L14-1_0_Int hhv_id2_L14-1_1_Int hbv_id2_L14_2_Int hhv_id2_L14-1_3_Int hbv_id2_L14_4_Bool) (id_idEXIT hbv_id_idEXIT_0_Int hbv_id_idEXIT_1_Int hbv_id_idEXIT_2_Int hbv_id_idEXIT_3_Int hbv_id_idEXIT_4_Bool) (= hhv_id2_L14-1_2_Int hbv_id_idEXIT_0_Int) (= hbv_id_idEXIT_3_Int (+ hhv_id2_L14-1_1_Int (- 1))) (let ((.cse0 (or hbv_id2_L14_4_Bool hbv_id_idEXIT_4_Bool))) (or (and .cse0 hhv_id2_L14-1_4_Bool) (and (not hhv_id2_L14-1_4_Bool) (not .cse0))))) (id2_L14-1 hhv_id2_L14-1_0_Int hhv_id2_L14-1_1_Int hhv_id2_L14-1_2_Int hhv_id2_L14-1_3_Int hhv_id2_L14-1_4_Bool))))
(assert (forall ((hhv_ULTIMATE.start_L19-1_0_Int Int) (hhv_ULTIMATE.start_L19-1_1_Int Int) (hhv_ULTIMATE.start_L19-1_2_Int Int) (hhv_ULTIMATE.start_L19-1_3_Int Int) (hhv_ULTIMATE.start_L19-1_4_Int Int) (hhv_ULTIMATE.start_L19-1_5_Bool Bool) (hbv_ULTIMATE.start_L19_0_Int Int) (hbv_ULTIMATE.start_L19_1_Int Int) (hbv_ULTIMATE.start_L19_2_Int Int) (hbv_ULTIMATE.start_L19_3_Int Int) (hbv_ULTIMATE.start_L19_4_Int Int) (hbv_ULTIMATE.start_L19_5_Bool Bool) (hbv_id_idEXIT_0_Int Int) (hbv_id_idEXIT_1_Int Int) (hbv_id_idEXIT_2_Int Int) (hbv_id_idEXIT_3_Int Int) (hbv_id_idEXIT_4_Bool Bool)) (=> (and (id_idEXIT hbv_id_idEXIT_0_Int hbv_id_idEXIT_1_Int hbv_id_idEXIT_2_Int hbv_id_idEXIT_3_Int hbv_id_idEXIT_4_Bool) (let ((.cse0 (or hbv_ULTIMATE.start_L19_5_Bool hbv_id_idEXIT_4_Bool))) (or (and (not hhv_ULTIMATE.start_L19-1_5_Bool) (not .cse0)) (and hhv_ULTIMATE.start_L19-1_5_Bool .cse0))) (= hhv_ULTIMATE.start_L19-1_1_Int hbv_id_idEXIT_0_Int) (= hbv_id_idEXIT_3_Int hhv_ULTIMATE.start_L19-1_3_Int) (ULTIMATE.start_L19 hhv_ULTIMATE.start_L19-1_0_Int hbv_ULTIMATE.start_L19_1_Int hhv_ULTIMATE.start_L19-1_2_Int hhv_ULTIMATE.start_L19-1_3_Int hhv_ULTIMATE.start_L19-1_4_Int hbv_ULTIMATE.start_L19_5_Bool)) (ULTIMATE.start_L19-1 hhv_ULTIMATE.start_L19-1_0_Int hhv_ULTIMATE.start_L19-1_1_Int hhv_ULTIMATE.start_L19-1_2_Int hhv_ULTIMATE.start_L19-1_3_Int hhv_ULTIMATE.start_L19-1_4_Int hhv_ULTIMATE.start_L19-1_5_Bool))))
(assert (forall ((hhv_id_idFINAL_0_Int Int) (hhv_id_idFINAL_1_Int Int) (hhv_id_idFINAL_2_Int Int) (hhv_id_idFINAL_3_Int Int) (hhv_id_idFINAL_4_Bool Bool) (hbv_id_L9-1_0_Int Int) (hbv_id_L9-1_1_Int Int) (hbv_id_L9-1_2_Int Int) (hbv_id_L9-1_3_Int Int) (hbv_id_L9-1_4_Bool Bool)) (=> (and (id_L9-1 hbv_id_L9-1_0_Int hbv_id_L9-1_1_Int hhv_id_idFINAL_2_Int hhv_id_idFINAL_3_Int hhv_id_idFINAL_4_Bool) (or hhv_id_idFINAL_4_Bool (and (= hhv_id_idFINAL_0_Int (+ hbv_id_L9-1_1_Int 1)) (<= 0 (+ hbv_id_L9-1_1_Int 2147483648)) (<= hbv_id_L9-1_1_Int 2147483647)))) (id_idFINAL hhv_id_idFINAL_0_Int hhv_id_idFINAL_1_Int hhv_id_idFINAL_2_Int hhv_id_idFINAL_3_Int hhv_id_idFINAL_4_Bool))))
(assert (forall ((hhv_id2_L13_0_Int Int) (hhv_id2_L13_1_Int Int) (hhv_id2_L13_2_Int Int) (hhv_id2_L13_3_Int Int) (hhv_id2_L13_4_Bool Bool) (hbv_id2_id2ENTRY_0_Int Int) (hbv_id2_id2ENTRY_1_Int Int) (hbv_id2_id2ENTRY_2_Int Int) (hbv_id2_id2ENTRY_3_Int Int) (hbv_id2_id2ENTRY_4_Bool Bool)) (=> (and (or (= hhv_id2_L13_1_Int hhv_id2_L13_0_Int) hhv_id2_L13_4_Bool) (id2_id2ENTRY hhv_id2_L13_0_Int hbv_id2_id2ENTRY_1_Int hhv_id2_L13_2_Int hhv_id2_L13_3_Int hhv_id2_L13_4_Bool)) (id2_L13 hhv_id2_L13_0_Int hhv_id2_L13_1_Int hhv_id2_L13_2_Int hhv_id2_L13_3_Int hhv_id2_L13_4_Bool))))
(assert (forall ((hhv_id2_id2FINAL_0_Int Int) (hhv_id2_id2FINAL_1_Int Int) (hhv_id2_id2FINAL_2_Int Int) (hhv_id2_id2FINAL_3_Int Int) (hhv_id2_id2FINAL_4_Bool Bool) (hbv_id2_L14-1_0_Int Int) (hbv_id2_L14-1_1_Int Int) (hbv_id2_L14-1_2_Int Int) (hbv_id2_L14-1_3_Int Int) (hbv_id2_L14-1_4_Bool Bool)) (=> (and (id2_L14-1 hhv_id2_id2FINAL_0_Int hhv_id2_id2FINAL_1_Int hbv_id2_L14-1_2_Int hbv_id2_L14-1_3_Int hhv_id2_id2FINAL_4_Bool) (or (and (<= hbv_id2_L14-1_2_Int 2147483647) (= hhv_id2_id2FINAL_3_Int (+ hbv_id2_L14-1_2_Int 1)) (<= 0 (+ hbv_id2_L14-1_2_Int 2147483648))) hhv_id2_id2FINAL_4_Bool)) (id2_id2FINAL hhv_id2_id2FINAL_0_Int hhv_id2_id2FINAL_1_Int hhv_id2_id2FINAL_2_Int hhv_id2_id2FINAL_3_Int hhv_id2_id2FINAL_4_Bool))))
(assert (forall ((hhv_id2_id2FINAL_0_Int Int) (hhv_id2_id2FINAL_1_Int Int) (hhv_id2_id2FINAL_2_Int Int) (hhv_id2_id2FINAL_3_Int Int) (hhv_id2_id2FINAL_4_Bool Bool) (hbv_id2_L13_0_Int Int) (hbv_id2_L13_1_Int Int) (hbv_id2_L13_2_Int Int) (hbv_id2_L13_3_Int Int) (hbv_id2_L13_4_Bool Bool)) (=> (and (id2_L13 hhv_id2_id2FINAL_0_Int hhv_id2_id2FINAL_1_Int hhv_id2_id2FINAL_2_Int hbv_id2_L13_3_Int hhv_id2_id2FINAL_4_Bool) (or (and (= hhv_id2_id2FINAL_3_Int 0) (= 0 hhv_id2_id2FINAL_1_Int)) hhv_id2_id2FINAL_4_Bool)) (id2_id2FINAL hhv_id2_id2FINAL_0_Int hhv_id2_id2FINAL_1_Int hhv_id2_id2FINAL_2_Int hhv_id2_id2FINAL_3_Int hhv_id2_id2FINAL_4_Bool))))
(assert (forall ((hhv_id2_L14_0_Int Int) (hhv_id2_L14_1_Int Int) (hhv_id2_L14_2_Int Int) (hhv_id2_L14_3_Int Int) (hhv_id2_L14_4_Bool Bool) (hbv_id2_L13_0_Int Int) (hbv_id2_L13_1_Int Int) (hbv_id2_L13_2_Int Int) (hbv_id2_L13_3_Int Int) (hbv_id2_L13_4_Bool Bool)) (=> (and (id2_L13 hhv_id2_L14_0_Int hhv_id2_L14_1_Int hhv_id2_L14_2_Int hhv_id2_L14_3_Int hhv_id2_L14_4_Bool) (or (not (= 0 hhv_id2_L14_1_Int)) hhv_id2_L14_4_Bool)) (id2_L14 hhv_id2_L14_0_Int hhv_id2_L14_1_Int hhv_id2_L14_2_Int hhv_id2_L14_3_Int hhv_id2_L14_4_Bool))))
(assert (forall ((hhv_id2_id2EXIT_0_Int Int) (hhv_id2_id2EXIT_1_Int Int) (hhv_id2_id2EXIT_2_Int Int) (hhv_id2_id2EXIT_3_Int Int) (hhv_id2_id2EXIT_4_Bool Bool) (hbv_id2_id2FINAL_0_Int Int) (hbv_id2_id2FINAL_1_Int Int) (hbv_id2_id2FINAL_2_Int Int) (hbv_id2_id2FINAL_3_Int Int) (hbv_id2_id2FINAL_4_Bool Bool)) (=> (id2_id2FINAL hhv_id2_id2EXIT_0_Int hhv_id2_id2EXIT_1_Int hhv_id2_id2EXIT_2_Int hhv_id2_id2EXIT_3_Int hhv_id2_id2EXIT_4_Bool) (id2_id2EXIT hhv_id2_id2EXIT_0_Int hhv_id2_id2EXIT_1_Int hhv_id2_id2EXIT_2_Int hhv_id2_id2EXIT_3_Int hhv_id2_id2EXIT_4_Bool))))
(assert (forall ((hhv_id_L9-1_0_Int Int) (hhv_id_L9-1_1_Int Int) (hhv_id_L9-1_2_Int Int) (hhv_id_L9-1_3_Int Int) (hhv_id_L9-1_4_Bool Bool) (hbv_id_L9_0_Int Int) (hbv_id_L9_1_Int Int) (hbv_id_L9_2_Int Int) (hbv_id_L9_3_Int Int) (hbv_id_L9_4_Bool Bool) (hbv_id2_id2EXIT_0_Int Int) (hbv_id2_id2EXIT_1_Int Int) (hbv_id2_id2EXIT_2_Int Int) (hbv_id2_id2EXIT_3_Int Int) (hbv_id2_id2EXIT_4_Bool Bool)) (=> (and (= hhv_id_L9-1_1_Int hbv_id2_id2EXIT_3_Int) (= hbv_id2_id2EXIT_0_Int (+ hhv_id_L9-1_2_Int (- 1))) (id2_id2EXIT hbv_id2_id2EXIT_0_Int hbv_id2_id2EXIT_1_Int hbv_id2_id2EXIT_2_Int hbv_id2_id2EXIT_3_Int hbv_id2_id2EXIT_4_Bool) (let ((.cse0 (or hbv_id2_id2EXIT_4_Bool hbv_id_L9_4_Bool))) (or (and (not hhv_id_L9-1_4_Bool) (not .cse0)) (and hhv_id_L9-1_4_Bool .cse0))) (id_L9 hhv_id_L9-1_0_Int hbv_id_L9_1_Int hhv_id_L9-1_2_Int hhv_id_L9-1_3_Int hbv_id_L9_4_Bool)) (id_L9-1 hhv_id_L9-1_0_Int hhv_id_L9-1_1_Int hhv_id_L9-1_2_Int hhv_id_L9-1_3_Int hhv_id_L9-1_4_Bool))))
(assert (forall ((hhv_id2_id2ENTRY_0_Int Int) (hhv_id2_id2ENTRY_1_Int Int) (hhv_id2_id2ENTRY_2_Int Int) (hhv_id2_id2ENTRY_3_Int Int) (hhv_id2_id2ENTRY_4_Bool Bool)) (=> (not hhv_id2_id2ENTRY_4_Bool) (id2_id2ENTRY hhv_id2_id2ENTRY_0_Int hhv_id2_id2ENTRY_1_Int hhv_id2_id2ENTRY_2_Int hhv_id2_id2ENTRY_3_Int hhv_id2_id2ENTRY_4_Bool))))
(assert (forall ((hhv_ULTIMATE.start_ULTIMATE.startENTRY_0_Int Int) (hhv_ULTIMATE.start_ULTIMATE.startENTRY_1_Int Int) (hhv_ULTIMATE.start_ULTIMATE.startENTRY_2_Int Int) (hhv_ULTIMATE.start_ULTIMATE.startENTRY_3_Int Int) (hhv_ULTIMATE.start_ULTIMATE.startENTRY_4_Int Int) (hhv_ULTIMATE.start_ULTIMATE.startENTRY_5_Bool Bool)) (=> (not hhv_ULTIMATE.start_ULTIMATE.startENTRY_5_Bool) (ULTIMATE.start_ULTIMATE.startENTRY hhv_ULTIMATE.start_ULTIMATE.startENTRY_0_Int hhv_ULTIMATE.start_ULTIMATE.startENTRY_1_Int hhv_ULTIMATE.start_ULTIMATE.startENTRY_2_Int hhv_ULTIMATE.start_ULTIMATE.startENTRY_3_Int hhv_ULTIMATE.start_ULTIMATE.startENTRY_4_Int hhv_ULTIMATE.start_ULTIMATE.startENTRY_5_Bool))))
(assert (forall ((hhv_id_idENTRY_0_Int Int) (hhv_id_idENTRY_1_Int Int) (hhv_id_idENTRY_2_Int Int) (hhv_id_idENTRY_3_Int Int) (hhv_id_idENTRY_4_Bool Bool)) (=> (not hhv_id_idENTRY_4_Bool) (id_idENTRY hhv_id_idENTRY_0_Int hhv_id_idENTRY_1_Int hhv_id_idENTRY_2_Int hhv_id_idENTRY_3_Int hhv_id_idENTRY_4_Bool))))
(assert (forall ((hbv_ULTIMATE.start_ULTIMATE.startEXIT_0_Int Int) (hbv_ULTIMATE.start_ULTIMATE.startEXIT_1_Int Int) (hbv_ULTIMATE.start_ULTIMATE.startEXIT_2_Int Int) (hbv_ULTIMATE.start_ULTIMATE.startEXIT_3_Int Int) (hbv_ULTIMATE.start_ULTIMATE.startEXIT_4_Int Int) (hbv_ULTIMATE.start_ULTIMATE.startEXIT_5_Bool Bool)) (=> (and hbv_ULTIMATE.start_ULTIMATE.startEXIT_5_Bool (ULTIMATE.start_ULTIMATE.startEXIT hbv_ULTIMATE.start_ULTIMATE.startEXIT_0_Int hbv_ULTIMATE.start_ULTIMATE.startEXIT_1_Int hbv_ULTIMATE.start_ULTIMATE.startEXIT_2_Int hbv_ULTIMATE.start_ULTIMATE.startEXIT_3_Int hbv_ULTIMATE.start_ULTIMATE.startEXIT_4_Int hbv_ULTIMATE.start_ULTIMATE.startEXIT_5_Bool)) false)))
(check-sat)
